[VALIDATOR STDOUT]
Type-checking move
...action passes type checking.
Type-checking pick
...action passes type checking.
Type-checking drop
...action passes type checking.
Checking plan: /home/jfan5/Safety-gen/runs/benchmark/optic/grippers_20260215_225302/grippers/optic_results/grippers-n1-r6-o4-s4001.plan
Plan to validate:

Plan size: 16
1:
(move robot1 room3 room6)
 
2:
(pick robot1 ball2 room6 lgripper1)
 
3:
(move robot1 room6 room3)
 
4:
(drop robot1 ball2 room3 lgripper1)
 
5:
(move robot1 room3 room6)
 
6:
(move robot1 room6 room5)
 
7:
(pick robot1 ball3 room5 lgripper1)
 
8:
(pick robot1 ball1 room5 rgripper1)
 
9:
(move robot1 room5 room6)
 
10:
(drop robot1 ball1 room6 rgripper1)
 
11:
(drop robot1 ball3 room6 lgripper1)
 
12:
(move robot1 room6 room5)
 
13:
(move robot1 room5 room1)
 
14:
(pick robot1 ball4 room1 lgripper1)
 
15:
(move robot1 room1 room5)
 
16:
(drop robot1 ball4 room5 lgripper1)
 

Plan Validation details
-----------------------

Checking next happening (time 1)
Deleting (at-robby robot1 room3)
Adding (at-robby robot1 room6)

Checking next happening (time 2)
Deleting (at ball2 room6)
Deleting (free robot1 lgripper1)
Adding (carry robot1 ball2 lgripper1)

Checking next happening (time 3)
Deleting (at-robby robot1 room6)
Adding (at-robby robot1 room3)

Checking next happening (time 4)
Deleting (carry robot1 ball2 lgripper1)
Adding (at ball2 room3)
Adding (free robot1 lgripper1)

Checking next happening (time 5)
Deleting (at-robby robot1 room3)
Adding (at-robby robot1 room6)

Checking next happening (time 6)
Deleting (at-robby robot1 room6)
Adding (at-robby robot1 room5)

Checking next happening (time 7)
Deleting (at ball3 room5)
Deleting (free robot1 lgripper1)
Adding (carry robot1 ball3 lgripper1)

Checking next happening (time 8)
Deleting (at ball1 room5)
Deleting (free robot1 rgripper1)
Adding (carry robot1 ball1 rgripper1)

Checking next happening (time 9)
Deleting (at-robby robot1 room5)
Adding (at-robby robot1 room6)

Checking next happening (time 10)
Deleting (carry robot1 ball1 rgripper1)
Adding (at ball1 room6)
Adding (free robot1 rgripper1)

Checking next happening (time 11)
Deleting (carry robot1 ball3 lgripper1)
Adding (at ball3 room6)
Adding (free robot1 lgripper1)

Checking next happening (time 12)
Deleting (at-robby robot1 room6)
Adding (at-robby robot1 room5)

Checking next happening (time 13)
Deleting (at-robby robot1 room5)
Adding (at-robby robot1 room1)

Checking next happening (time 14)
Deleting (at ball4 room1)
Deleting (free robot1 lgripper1)
Adding (carry robot1 ball4 lgripper1)

Checking next happening (time 15)
Deleting (at-robby robot1 room1)
Adding (at-robby robot1 room5)

Checking next happening (time 16)
Deleting (carry robot1 ball4 lgripper1)
Adding (at ball4 room5)
Adding (free robot1 lgripper1)
Plan executed successfully - checking goal
Plan valid
Final value: 16 

Successful plans:
Value: 16
 /home/jfan5/Safety-gen/runs/benchmark/optic/grippers_20260215_225302/grippers/optic_results/grippers-n1-r6-o4-s4001.plan 16
